WARNING: for repeatability, setting FPU to use double precision
============================[ Problem Statistics ]=============================
|                                                                             |
|  Number of variables:          2353                                         |
|  Number of clauses:           52268                                         |
|  Parse time:                   0.01 s                                       |
|                                                                             |
c ============================[ Search Statistics ]==============================
c | Conflicts |          ORIGINAL         |          LEARNT          | Progress |
c |           |    Vars  Clauses Literals |    Limit  Clauses Lit/Cl |          |
c ===============================================================================
c Switched to VSIDS.
c Switched to LRB.
c Switched to VSIDS.
c Switched to LRB.
c Switched to VSIDS.
c Switched to LRB.
c Switched to VSIDS.
c Switched to LRB.
c Switched to VSIDS.
c Switched to LRB.
c Switched to VSIDS.
c Switched to LRB.
c Switched to VSIDS.
c Switched to LRB.
c Switched to VSIDS.
c Switched to LRB.
c Switched to VSIDS.
c Switched to LRB.
c Switched to VSIDS.
c Switched to LRB.
c Switched to VSIDS.
c Switched to LRB.
c Switched to VSIDS.
c Switched to LRB.
c Switched to VSIDS.
c Switched to LRB.
c Switched to VSIDS.
c Switched to LRB.
c Switched to VSIDS.
c ===============================================================================
restarts                  : 71982
conflicts                 : 16625680       (4706 /sec)
decisions                 : 54180037       (0.00 % random) (15335 /sec)
propagations              : 4620167232     (1307647 /sec)
conflict literals         : 3906191526     (19.18 % deleted)

conflicts w/ DIP found    : 5623063        (33.82 % of conflicts)
conflicts w/ dangerous DIP: 0              (0.00 % of conflicts)
conflicts w/ DIP-learning : 171389         (1.03 % of conflicts)
decisions on ext vars     : 3060128        (5.65 % of decisions)
total ext vars            : 4767        
tried delete ext vars     : 0           
deleted ext vars          : 0           
max ext vars              : 4767        

Memory used               : 541.00 MB
CPU time                  : 3533.19 s
DIP computation time      : 96.4936 s (2.73 % of total time)
ER_sel time               : 27.7787 s
ER_add time               : 0.023466 s
ER_delC time              : 0 s
ER_delV time              : 0 s
ER_sub time               : 31.7523 s
ER_stat time              : 0 s

INDETERMINATE
